p cnf 35 91
a 8 15 0
e 1 2 3 4 5 6 7 9 10 11 12 13 14 16 17 18 19 20 21 22 23 24 25 26 27 28 29 30 31 32 33 34 35 0
-1 -2 -3 0
1 2 -3 0
-1 2 3 0
1 -2 3 0
5 -3 0
5 -4 0
3 4 -5 0
-7 6 0
-7 -4 0
-6 4 7 0
-3 -1 -9 0
3 1 -9 0
-3 1 9 0
3 -1 9 0
8 9 -10 0
-8 -9 -10 0
8 -9 10 0
-8 9 10 0
-11 7 0
-11 -10 0
-7 10 11 0
5 11 -12 0
-5 -11 -12 0
5 -11 12 0
-5 11 12 0
-13 -4 -14 0
13 4 -14 0
-13 4 14 0
13 -4 14 0
15 -14 0
15 -2 0
14 2 -15 0
16 -15 0
16 15 0
17 2 0
17 -15 0
-2 15 -17 0
19 -17 0
19 -18 0
17 18 -19 0
-21 1 0
-21 20 0
-1 -20 21 0
17 -21 -22 0
-17 21 -22 0
17 21 22 0
-17 -21 22 0
-19 22 -23 0
19 -22 -23 0
-19 -22 23 0
19 22 23 0
24 -16 0
24 23 0
16 -23 -24 0
-26 1 0
-26 25 0
-1 -25 26 0
27 -25 0
27 -3 0
25 3 -27 0
29 9 0
29 -28 0
-9 28 -29 0
-27 -29 -30 0
27 29 -30 0
-27 29 30 0
27 -29 30 0
31 20 0
31 6 0
-20 -6 -31 0
32 -30 0
32 -31 0
30 31 -32 0
-33 -26 0
-33 32 0
26 -32 33 0
-34 -24 0
-34 33 0
24 -33 34 0
-35 12 0
-35 -34 0
-12 34 35 0
-6 27 1 -10 12 17 0
-32 -26 25 -10 0
-23 27 2 -30 -8 -21 7 0
-9 -35 -19 25 29 -4 10 -32 0
-2 -27 35 -28 0
-16 -15 21 35 0
-24 30 1 6 -14 0
11 -17 20 30 31 28 0
35 0
